\ SCIP STATISTICS
\   Problem name     : fhnw-binpack4-4
\   Variables        : 520 (481 binary, 0 integer, 0 implicit integer, 39 continuous)
\   Constraints      : 620
Minimize
 Obj: 0 C518
Subject to
 R0: -290 C0 +1 C13 <= -40
 R1: +290 C0 +1 C39 <= +450
 R2: -290 C1 +1 C14 <= -40
 R3: +290 C1 +1 C40 <= +450
 R4: -290 C2 +1 C15 <= -40
 R5: +290 C2 +1 C41 <= +450
 R6: -290 C3 +1 C16 <= -40
 R7: +290 C3 +1 C42 <= +450
 R8: -290 C4 +1 C17 <= -40
 R9: +290 C4 +1 C43 <= +450
 R10: -290 C5 +1 C18 <= -40
 R11: +290 C5 +1 C44 <= +450
 R12: -290 C6 +1 C19 <= -40
 R13: +290 C6 +1 C45 <= +450
 R14: -290 C7 +1 C20 <= -40
 R15: +290 C7 +1 C46 <= +450
 R16: -290 C8 +1 C21 <= -40
 R17: +290 C8 +1 C47 <= +450
 R18: -290 C9 +1 C22 <= -40
 R19: +290 C9 +1 C48 <= +450
 R20: -106 C10 +1 C23 <= +110
 R21: +106 C10 +1 C49 <= +416
 R22: -106 C11 +1 C24 <= +110
 R23: +106 C11 +1 C50 <= +416
 R24: -106 C12 +1 C25 <= +110
 R25: +106 C12 +1 C51 <= +416
 R26: +1 C52 +1 C53 +1 C54 +1 C55 +1 C56 +1 C57 <= +5
 R27: +290 C0 -1 C13 +1 C14 +360 C53 >= +400
 R28: -290 C1 +1 C39 -1 C40 +560 C56 >= +110
 R29: -290 C0 -1 C39 +1 C40 +560 C57 >= +110
 R30: +1 C26 -1 C27 +100 C54 >= +33
 R31: -1 C26 +1 C27 +100 C55 >= +33
 R32: +1 C0 -1 C1 <= +0
 R33: +290 C1 +1 C13 -1 C14 +360 C52 >= +400
 R34: +1 C58 +1 C59 +1 C60 +1 C61 +1 C62 +1 C63 <= +5
 R35: +290 C0 -1 C13 +1 C15 +360 C59 >= +400
 R36: -290 C2 +1 C39 -1 C41 +560 C62 >= +110
 R37: -290 C0 -1 C39 +1 C41 +560 C63 >= +110
 R38: +1 C26 -1 C28 +100 C60 >= +33
 R39: -1 C26 +1 C28 +100 C61 >= +33
 R40: +1 C0 -1 C2 <= +0
 R41: +290 C2 +1 C13 -1 C15 +360 C58 >= +400
 R42: +1 C64 +1 C65 +1 C66 +1 C67 +1 C68 +1 C69 <= +5
 R43: +290 C0 -1 C13 +1 C16 +360 C65 >= +400
 R44: -290 C3 +1 C39 -1 C42 +560 C68 >= +110
 R45: -290 C0 -1 C39 +1 C42 +560 C69 >= +110
 R46: +1 C26 -1 C29 +100 C66 >= +33
 R47: -1 C26 +1 C29 +100 C67 >= +33
 R48: +1 C0 -1 C3 <= +0
 R49: +290 C3 +1 C13 -1 C16 +360 C64 >= +400
 R50: +1 C70 +1 C71 +1 C72 +1 C73 +1 C74 +1 C75 <= +5
 R51: +290 C0 -1 C13 +1 C17 +360 C71 >= +400
 R52: -290 C4 +1 C39 -1 C43 +560 C74 >= +110
 R53: -290 C0 -1 C39 +1 C43 +560 C75 >= +110
 R54: +1 C26 -1 C30 +100 C72 >= +33
 R55: -1 C26 +1 C30 +100 C73 >= +33
 R56: +1 C0 -1 C4 <= +0
 R57: +290 C4 +1 C13 -1 C17 +360 C70 >= +400
 R58: +1 C76 +1 C77 +1 C78 +1 C79 +1 C80 +1 C81 <= +5
 R59: +290 C0 -1 C13 +1 C18 +360 C77 >= +400
 R60: -290 C5 +1 C39 -1 C44 +560 C80 >= +110
 R61: -290 C0 -1 C39 +1 C44 +560 C81 >= +110
 R62: +1 C26 -1 C31 +100 C78 >= +33
 R63: -1 C26 +1 C31 +100 C79 >= +33
 R64: +1 C0 -1 C5 <= +0
 R65: +290 C5 +1 C13 -1 C18 +360 C76 >= +400
 R66: +1 C82 +1 C83 +1 C84 +1 C85 +1 C86 +1 C87 <= +5
 R67: +290 C0 -1 C13 +1 C19 +360 C83 >= +400
 R68: -290 C6 +1 C39 -1 C45 +560 C86 >= +110
 R69: -290 C0 -1 C39 +1 C45 +560 C87 >= +110
 R70: +1 C26 -1 C32 +100 C84 >= +33
 R71: -1 C26 +1 C32 +100 C85 >= +33
 R72: +1 C0 -1 C6 <= +0
 R73: +290 C6 +1 C13 -1 C19 +360 C82 >= +400
 R74: +1 C88 +1 C89 +1 C90 +1 C91 +1 C92 +1 C93 <= +5
 R75: +290 C0 -1 C13 +1 C20 +360 C89 >= +400
 R76: -290 C7 +1 C39 -1 C46 +560 C92 >= +110
 R77: -290 C0 -1 C39 +1 C46 +560 C93 >= +110
 R78: +1 C26 -1 C33 +100 C90 >= +33
 R79: -1 C26 +1 C33 +100 C91 >= +33
 R80: +1 C0 -1 C7 <= +0
 R81: +290 C7 +1 C13 -1 C20 +360 C88 >= +400
 R82: +1 C94 +1 C95 +1 C96 +1 C97 +1 C98 +1 C99 <= +5
 R83: +290 C0 -1 C13 +1 C21 +360 C95 >= +400
 R84: -290 C8 +1 C39 -1 C47 +560 C98 >= +110
 R85: -290 C0 -1 C39 +1 C47 +560 C99 >= +110
 R86: +1 C26 -1 C34 +100 C96 >= +33
 R87: -1 C26 +1 C34 +100 C97 >= +33
 R88: +1 C0 -1 C8 <= +0
 R89: +290 C8 +1 C13 -1 C21 +360 C94 >= +400
 R90: +1 C100 +1 C101 +1 C102 +1 C103 +1 C104 +1 C105 <= +5
 R91: +290 C0 -1 C13 +1 C22 +360 C101 >= +400
 R92: -290 C9 +1 C39 -1 C48 +560 C104 >= +110
 R93: -290 C0 -1 C39 +1 C48 +560 C105 >= +110
 R94: +1 C26 -1 C35 +100 C102 >= +33
 R95: -1 C26 +1 C35 +100 C103 >= +33
 R96: +1 C0 -1 C9 <= +0
 R97: +290 C9 +1 C13 -1 C22 +360 C100 >= +400
 R98: +1 C106 +1 C107 +1 C108 +1 C109 +1 C110 +1 C111 <= +5
 R99: +290 C0 -1 C13 +1 C23 +360 C107 >= +400
 R100: -106 C10 +1 C39 -1 C49 +560 C110 >= +144
 R101: -290 C0 -1 C39 +1 C49 +560 C111 >= +110
 R102: +1 C26 -1 C36 +100 C108 >= +30
 R103: -1 C26 +1 C36 +100 C109 >= +33
 R104: +106 C10 +1 C13 -1 C23 +360 C106 >= +250
 R105: +1 C112 +1 C113 +1 C114 +1 C115 +1 C116 +1 C117 <= +5
 R106: +290 C0 -1 C13 +1 C24 +360 C113 >= +400
 R107: -106 C11 +1 C39 -1 C50 +560 C116 >= +144
 R108: -290 C0 -1 C39 +1 C50 +560 C117 >= +110
 R109: +1 C26 -1 C37 +100 C114 >= +30
 R110: -1 C26 +1 C37 +100 C115 >= +33
 R111: +106 C11 +1 C13 -1 C24 +360 C112 >= +250
 R112: +1 C118 +1 C119 +1 C120 +1 C121 +1 C122 +1 C123 <= +5
 R113: +290 C0 -1 C13 +1 C25 +360 C119 >= +400
 R114: -106 C12 +1 C39 -1 C51 +560 C122 >= +144
 R115: -290 C0 -1 C39 +1 C51 +560 C123 >= +110
 R116: +1 C26 -1 C38 +100 C120 >= +30
 R117: -1 C26 +1 C38 +100 C121 >= +33
 R118: +106 C12 +1 C13 -1 C25 +360 C118 >= +250
 R119: +1 C124 +1 C125 +1 C126 +1 C127 +1 C128 +1 C129 <= +5
 R120: +290 C1 -1 C14 +1 C15 +360 C125 >= +400
 R121: -290 C2 +1 C40 -1 C41 +560 C128 >= +110
 R122: -290 C1 -1 C40 +1 C41 +560 C129 >= +110
 R123: +1 C27 -1 C28 +100 C126 >= +33
 R124: -1 C27 +1 C28 +100 C127 >= +33
 R125: +1 C1 -1 C2 <= +0
 R126: +290 C2 +1 C14 -1 C15 +360 C124 >= +400
 R127: +1 C130 +1 C131 +1 C132 +1 C133 +1 C134 +1 C135 <= +5
 R128: +290 C1 -1 C14 +1 C16 +360 C131 >= +400
 R129: -290 C3 +1 C40 -1 C42 +560 C134 >= +110
 R130: -290 C1 -1 C40 +1 C42 +560 C135 >= +110
 R131: +1 C27 -1 C29 +100 C132 >= +33
 R132: -1 C27 +1 C29 +100 C133 >= +33
 R133: +1 C1 -1 C3 <= +0
 R134: +290 C3 +1 C14 -1 C16 +360 C130 >= +400
 R135: +1 C136 +1 C137 +1 C138 +1 C139 +1 C140 +1 C141 <= +5
 R136: +290 C1 -1 C14 +1 C17 +360 C137 >= +400
 R137: -290 C4 +1 C40 -1 C43 +560 C140 >= +110
 R138: -290 C1 -1 C40 +1 C43 +560 C141 >= +110
 R139: +1 C27 -1 C30 +100 C138 >= +33
 R140: -1 C27 +1 C30 +100 C139 >= +33
 R141: +1 C1 -1 C4 <= +0
 R142: +290 C4 +1 C14 -1 C17 +360 C136 >= +400
 R143: +1 C142 +1 C143 +1 C144 +1 C145 +1 C146 +1 C147 <= +5
 R144: +290 C1 -1 C14 +1 C18 +360 C143 >= +400
 R145: -290 C5 +1 C40 -1 C44 +560 C146 >= +110
 R146: -290 C1 -1 C40 +1 C44 +560 C147 >= +110
 R147: +1 C27 -1 C31 +100 C144 >= +33
 R148: -1 C27 +1 C31 +100 C145 >= +33
 R149: +1 C1 -1 C5 <= +0
 R150: +290 C5 +1 C14 -1 C18 +360 C142 >= +400
 R151: +1 C148 +1 C149 +1 C150 +1 C151 +1 C152 +1 C153 <= +5
 R152: +290 C1 -1 C14 +1 C19 +360 C149 >= +400
 R153: -290 C6 +1 C40 -1 C45 +560 C152 >= +110
 R154: -290 C1 -1 C40 +1 C45 +560 C153 >= +110
 R155: +1 C27 -1 C32 +100 C150 >= +33
 R156: -1 C27 +1 C32 +100 C151 >= +33
 R157: +1 C1 -1 C6 <= +0
 R158: +290 C6 +1 C14 -1 C19 +360 C148 >= +400
 R159: +1 C154 +1 C155 +1 C156 +1 C157 +1 C158 +1 C159 <= +5
 R160: +290 C1 -1 C14 +1 C20 +360 C155 >= +400
 R161: -290 C7 +1 C40 -1 C46 +560 C158 >= +110
 R162: -290 C1 -1 C40 +1 C46 +560 C159 >= +110
 R163: +1 C27 -1 C33 +100 C156 >= +33
 R164: -1 C27 +1 C33 +100 C157 >= +33
 R165: +1 C1 -1 C7 <= +0
 R166: +290 C7 +1 C14 -1 C20 +360 C154 >= +400
 R167: +1 C160 +1 C161 +1 C162 +1 C163 +1 C164 +1 C165 <= +5
 R168: +290 C1 -1 C14 +1 C21 +360 C161 >= +400
 R169: -290 C8 +1 C40 -1 C47 +560 C164 >= +110
 R170: -290 C1 -1 C40 +1 C47 +560 C165 >= +110
 R171: +1 C27 -1 C34 +100 C162 >= +33
 R172: -1 C27 +1 C34 +100 C163 >= +33
 R173: +1 C1 -1 C8 <= +0
 R174: +290 C8 +1 C14 -1 C21 +360 C160 >= +400
 R175: +1 C166 +1 C167 +1 C168 +1 C169 +1 C170 +1 C171 <= +5
 R176: +290 C1 -1 C14 +1 C22 +360 C167 >= +400
 R177: -290 C9 +1 C40 -1 C48 +560 C170 >= +110
 R178: -290 C1 -1 C40 +1 C48 +560 C171 >= +110
 R179: +1 C27 -1 C35 +100 C168 >= +33
 R180: -1 C27 +1 C35 +100 C169 >= +33
 R181: +1 C1 -1 C9 <= +0
 R182: +290 C9 +1 C14 -1 C22 +360 C166 >= +400
 R183: +1 C172 +1 C173 +1 C174 +1 C175 +1 C176 +1 C177 <= +5
 R184: +290 C1 -1 C14 +1 C23 +360 C173 >= +400
 R185: -106 C10 +1 C40 -1 C49 +560 C176 >= +144
 R186: -290 C1 -1 C40 +1 C49 +560 C177 >= +110
 R187: +1 C27 -1 C36 +100 C174 >= +30
 R188: -1 C27 +1 C36 +100 C175 >= +33
 R189: +106 C10 +1 C14 -1 C23 +360 C172 >= +250
 R190: +1 C178 +1 C179 +1 C180 +1 C181 +1 C182 +1 C183 <= +5
 R191: +290 C1 -1 C14 +1 C24 +360 C179 >= +400
 R192: -106 C11 +1 C40 -1 C50 +560 C182 >= +144
 R193: -290 C1 -1 C40 +1 C50 +560 C183 >= +110
 R194: +1 C27 -1 C37 +100 C180 >= +30
 R195: -1 C27 +1 C37 +100 C181 >= +33
 R196: +106 C11 +1 C14 -1 C24 +360 C178 >= +250
 R197: +1 C184 +1 C185 +1 C186 +1 C187 +1 C188 +1 C189 <= +5
 R198: +290 C1 -1 C14 +1 C25 +360 C185 >= +400
 R199: -106 C12 +1 C40 -1 C51 +560 C188 >= +144
 R200: -290 C1 -1 C40 +1 C51 +560 C189 >= +110
 R201: +1 C27 -1 C38 +100 C186 >= +30
 R202: -1 C27 +1 C38 +100 C187 >= +33
 R203: +106 C12 +1 C14 -1 C25 +360 C184 >= +250
 R204: +1 C190 +1 C191 +1 C192 +1 C193 +1 C194 +1 C195 <= +5
 R205: +290 C2 -1 C15 +1 C16 +360 C191 >= +400
 R206: -290 C3 +1 C41 -1 C42 +560 C194 >= +110
 R207: -290 C2 -1 C41 +1 C42 +560 C195 >= +110
 R208: +1 C28 -1 C29 +100 C192 >= +33
 R209: -1 C28 +1 C29 +100 C193 >= +33
 R210: +1 C2 -1 C3 <= +0
 R211: +290 C3 +1 C15 -1 C16 +360 C190 >= +400
 R212: +1 C196 +1 C197 +1 C198 +1 C199 +1 C200 +1 C201 <= +5
 R213: +290 C2 -1 C15 +1 C17 +360 C197 >= +400
 R214: -290 C4 +1 C41 -1 C43 +560 C200 >= +110
 R215: -290 C2 -1 C41 +1 C43 +560 C201 >= +110
 R216: +1 C28 -1 C30 +100 C198 >= +33
 R217: -1 C28 +1 C30 +100 C199 >= +33
 R218: +1 C2 -1 C4 <= +0
 R219: +290 C4 +1 C15 -1 C17 +360 C196 >= +400
 R220: +1 C202 +1 C203 +1 C204 +1 C205 +1 C206 +1 C207 <= +5
 R221: +290 C2 -1 C15 +1 C18 +360 C203 >= +400
 R222: -290 C5 +1 C41 -1 C44 +560 C206 >= +110
 R223: -290 C2 -1 C41 +1 C44 +560 C207 >= +110
 R224: +1 C28 -1 C31 +100 C204 >= +33
 R225: -1 C28 +1 C31 +100 C205 >= +33
 R226: +1 C2 -1 C5 <= +0
 R227: +290 C5 +1 C15 -1 C18 +360 C202 >= +400
 R228: +1 C208 +1 C209 +1 C210 +1 C211 +1 C212 +1 C213 <= +5
 R229: +290 C2 -1 C15 +1 C19 +360 C209 >= +400
 R230: -290 C6 +1 C41 -1 C45 +560 C212 >= +110
 R231: -290 C2 -1 C41 +1 C45 +560 C213 >= +110
 R232: +1 C28 -1 C32 +100 C210 >= +33
 R233: -1 C28 +1 C32 +100 C211 >= +33
 R234: +1 C2 -1 C6 <= +0
 R235: +290 C6 +1 C15 -1 C19 +360 C208 >= +400
 R236: +1 C214 +1 C215 +1 C216 +1 C217 +1 C218 +1 C219 <= +5
 R237: +290 C2 -1 C15 +1 C20 +360 C215 >= +400
 R238: -290 C7 +1 C41 -1 C46 +560 C218 >= +110
 R239: -290 C2 -1 C41 +1 C46 +560 C219 >= +110
 R240: +1 C28 -1 C33 +100 C216 >= +33
 R241: -1 C28 +1 C33 +100 C217 >= +33
 R242: +1 C2 -1 C7 <= +0
 R243: +290 C7 +1 C15 -1 C20 +360 C214 >= +400
 R244: +1 C220 +1 C221 +1 C222 +1 C223 +1 C224 +1 C225 <= +5
 R245: +290 C2 -1 C15 +1 C21 +360 C221 >= +400
 R246: -290 C8 +1 C41 -1 C47 +560 C224 >= +110
 R247: -290 C2 -1 C41 +1 C47 +560 C225 >= +110
 R248: +1 C28 -1 C34 +100 C222 >= +33
 R249: -1 C28 +1 C34 +100 C223 >= +33
 R250: +1 C2 -1 C8 <= +0
 R251: +290 C8 +1 C15 -1 C21 +360 C220 >= +400
 R252: +1 C226 +1 C227 +1 C228 +1 C229 +1 C230 +1 C231 <= +5
 R253: +290 C2 -1 C15 +1 C22 +360 C227 >= +400
 R254: -290 C9 +1 C41 -1 C48 +560 C230 >= +110
 R255: -290 C2 -1 C41 +1 C48 +560 C231 >= +110
 R256: +1 C28 -1 C35 +100 C228 >= +33
 R257: -1 C28 +1 C35 +100 C229 >= +33
 R258: +1 C2 -1 C9 <= +0
 R259: +290 C9 +1 C15 -1 C22 +360 C226 >= +400
 R260: +1 C232 +1 C233 +1 C234 +1 C235 +1 C236 +1 C237 <= +5
 R261: +290 C2 -1 C15 +1 C23 +360 C233 >= +400
 R262: -106 C10 +1 C41 -1 C49 +560 C236 >= +144
 R263: -290 C2 -1 C41 +1 C49 +560 C237 >= +110
 R264: +1 C28 -1 C36 +100 C234 >= +30
 R265: -1 C28 +1 C36 +100 C235 >= +33
 R266: +106 C10 +1 C15 -1 C23 +360 C232 >= +250
 R267: +1 C238 +1 C239 +1 C240 +1 C241 +1 C242 +1 C243 <= +5
 R268: +290 C2 -1 C15 +1 C24 +360 C239 >= +400
 R269: -106 C11 +1 C41 -1 C50 +560 C242 >= +144
 R270: -290 C2 -1 C41 +1 C50 +560 C243 >= +110
 R271: +1 C28 -1 C37 +100 C240 >= +30
 R272: -1 C28 +1 C37 +100 C241 >= +33
 R273: +106 C11 +1 C15 -1 C24 +360 C238 >= +250
 R274: +1 C244 +1 C245 +1 C246 +1 C247 +1 C248 +1 C249 <= +5
 R275: +290 C2 -1 C15 +1 C25 +360 C245 >= +400
 R276: -106 C12 +1 C41 -1 C51 +560 C248 >= +144
 R277: -290 C2 -1 C41 +1 C51 +560 C249 >= +110
 R278: +1 C28 -1 C38 +100 C246 >= +30
 R279: -1 C28 +1 C38 +100 C247 >= +33
 R280: +106 C12 +1 C15 -1 C25 +360 C244 >= +250
 R281: +1 C250 +1 C251 +1 C252 +1 C253 +1 C254 +1 C255 <= +5
 R282: +290 C3 -1 C16 +1 C17 +360 C251 >= +400
 R283: -290 C4 +1 C42 -1 C43 +560 C254 >= +110
 R284: -290 C3 -1 C42 +1 C43 +560 C255 >= +110
 R285: +1 C29 -1 C30 +100 C252 >= +33
 R286: -1 C29 +1 C30 +100 C253 >= +33
 R287: +1 C3 -1 C4 <= +0
 R288: +290 C4 +1 C16 -1 C17 +360 C250 >= +400
 R289: +1 C256 +1 C257 +1 C258 +1 C259 +1 C260 +1 C261 <= +5
 R290: +290 C3 -1 C16 +1 C18 +360 C257 >= +400
 R291: -290 C5 +1 C42 -1 C44 +560 C260 >= +110
 R292: -290 C3 -1 C42 +1 C44 +560 C261 >= +110
 R293: +1 C29 -1 C31 +100 C258 >= +33
 R294: -1 C29 +1 C31 +100 C259 >= +33
 R295: +1 C3 -1 C5 <= +0
 R296: +290 C5 +1 C16 -1 C18 +360 C256 >= +400
 R297: +1 C262 +1 C263 +1 C264 +1 C265 +1 C266 +1 C267 <= +5
 R298: +290 C3 -1 C16 +1 C19 +360 C263 >= +400
 R299: -290 C6 +1 C42 -1 C45 +560 C266 >= +110
 R300: -290 C3 -1 C42 +1 C45 +560 C267 >= +110
 R301: +1 C29 -1 C32 +100 C264 >= +33
 R302: -1 C29 +1 C32 +100 C265 >= +33
 R303: +1 C3 -1 C6 <= +0
 R304: +290 C6 +1 C16 -1 C19 +360 C262 >= +400
 R305: +1 C268 +1 C269 +1 C270 +1 C271 +1 C272 +1 C273 <= +5
 R306: +290 C3 -1 C16 +1 C20 +360 C269 >= +400
 R307: -290 C7 +1 C42 -1 C46 +560 C272 >= +110
 R308: -290 C3 -1 C42 +1 C46 +560 C273 >= +110
 R309: +1 C29 -1 C33 +100 C270 >= +33
 R310: -1 C29 +1 C33 +100 C271 >= +33
 R311: +1 C3 -1 C7 <= +0
 R312: +290 C7 +1 C16 -1 C20 +360 C268 >= +400
 R313: +1 C274 +1 C275 +1 C276 +1 C277 +1 C278 +1 C279 <= +5
 R314: +290 C3 -1 C16 +1 C21 +360 C275 >= +400
 R315: -290 C8 +1 C42 -1 C47 +560 C278 >= +110
 R316: -290 C3 -1 C42 +1 C47 +560 C279 >= +110
 R317: +1 C29 -1 C34 +100 C276 >= +33
 R318: -1 C29 +1 C34 +100 C277 >= +33
 R319: +1 C3 -1 C8 <= +0
 R320: +290 C8 +1 C16 -1 C21 +360 C274 >= +400
 R321: +1 C280 +1 C281 +1 C282 +1 C283 +1 C284 +1 C285 <= +5
 R322: +290 C3 -1 C16 +1 C22 +360 C281 >= +400
 R323: -290 C9 +1 C42 -1 C48 +560 C284 >= +110
 R324: -290 C3 -1 C42 +1 C48 +560 C285 >= +110
 R325: +1 C29 -1 C35 +100 C282 >= +33
 R326: -1 C29 +1 C35 +100 C283 >= +33
 R327: +1 C3 -1 C9 <= +0
 R328: +290 C9 +1 C16 -1 C22 +360 C280 >= +400
 R329: +1 C286 +1 C287 +1 C288 +1 C289 +1 C290 +1 C291 <= +5
 R330: +290 C3 -1 C16 +1 C23 +360 C287 >= +400
 R331: -106 C10 +1 C42 -1 C49 +560 C290 >= +144
 R332: -290 C3 -1 C42 +1 C49 +560 C291 >= +110
 R333: +1 C29 -1 C36 +100 C288 >= +30
 R334: -1 C29 +1 C36 +100 C289 >= +33
 R335: +106 C10 +1 C16 -1 C23 +360 C286 >= +250
 R336: +1 C292 +1 C293 +1 C294 +1 C295 +1 C296 +1 C297 <= +5
 R337: +290 C3 -1 C16 +1 C24 +360 C293 >= +400
 R338: -106 C11 +1 C42 -1 C50 +560 C296 >= +144
 R339: -290 C3 -1 C42 +1 C50 +560 C297 >= +110
 R340: +1 C29 -1 C37 +100 C294 >= +30
 R341: -1 C29 +1 C37 +100 C295 >= +33
 R342: +106 C11 +1 C16 -1 C24 +360 C292 >= +250
 R343: +1 C298 +1 C299 +1 C300 +1 C301 +1 C302 +1 C303 <= +5
 R344: +290 C3 -1 C16 +1 C25 +360 C299 >= +400
 R345: -106 C12 +1 C42 -1 C51 +560 C302 >= +144
 R346: -290 C3 -1 C42 +1 C51 +560 C303 >= +110
 R347: +1 C29 -1 C38 +100 C300 >= +30
 R348: -1 C29 +1 C38 +100 C301 >= +33
 R349: +106 C12 +1 C16 -1 C25 +360 C298 >= +250
 R350: +1 C304 +1 C305 +1 C306 +1 C307 +1 C308 +1 C309 <= +5
 R351: +290 C4 -1 C17 +1 C18 +360 C305 >= +400
 R352: -290 C5 +1 C43 -1 C44 +560 C308 >= +110
 R353: -290 C4 -1 C43 +1 C44 +560 C309 >= +110
 R354: +1 C30 -1 C31 +100 C306 >= +33
 R355: -1 C30 +1 C31 +100 C307 >= +33
 R356: +1 C4 -1 C5 <= +0
 R357: +290 C5 +1 C17 -1 C18 +360 C304 >= +400
 R358: +1 C310 +1 C311 +1 C312 +1 C313 +1 C314 +1 C315 <= +5
 R359: +290 C4 -1 C17 +1 C19 +360 C311 >= +400
 R360: -290 C6 +1 C43 -1 C45 +560 C314 >= +110
 R361: -290 C4 -1 C43 +1 C45 +560 C315 >= +110
 R362: +1 C30 -1 C32 +100 C312 >= +33
 R363: -1 C30 +1 C32 +100 C313 >= +33
 R364: +1 C4 -1 C6 <= +0
 R365: +290 C6 +1 C17 -1 C19 +360 C310 >= +400
 R366: +1 C316 +1 C317 +1 C318 +1 C319 +1 C320 +1 C321 <= +5
 R367: +290 C4 -1 C17 +1 C20 +360 C317 >= +400
 R368: -290 C7 +1 C43 -1 C46 +560 C320 >= +110
 R369: -290 C4 -1 C43 +1 C46 +560 C321 >= +110
 R370: +1 C30 -1 C33 +100 C318 >= +33
 R371: -1 C30 +1 C33 +100 C319 >= +33
 R372: +1 C4 -1 C7 <= +0
 R373: +290 C7 +1 C17 -1 C20 +360 C316 >= +400
 R374: +1 C322 +1 C323 +1 C324 +1 C325 +1 C326 +1 C327 <= +5
 R375: +290 C4 -1 C17 +1 C21 +360 C323 >= +400
 R376: -290 C8 +1 C43 -1 C47 +560 C326 >= +110
 R377: -290 C4 -1 C43 +1 C47 +560 C327 >= +110
 R378: +1 C30 -1 C34 +100 C324 >= +33
 R379: -1 C30 +1 C34 +100 C325 >= +33
 R380: +1 C4 -1 C8 <= +0
 R381: +290 C8 +1 C17 -1 C21 +360 C322 >= +400
 R382: +1 C328 +1 C329 +1 C330 +1 C331 +1 C332 +1 C333 <= +5
 R383: +290 C4 -1 C17 +1 C22 +360 C329 >= +400
 R384: -290 C9 +1 C43 -1 C48 +560 C332 >= +110
 R385: -290 C4 -1 C43 +1 C48 +560 C333 >= +110
 R386: +1 C30 -1 C35 +100 C330 >= +33
 R387: -1 C30 +1 C35 +100 C331 >= +33
 R388: +1 C4 -1 C9 <= +0
 R389: +290 C9 +1 C17 -1 C22 +360 C328 >= +400
 R390: +1 C334 +1 C335 +1 C336 +1 C337 +1 C338 +1 C339 <= +5
 R391: +290 C4 -1 C17 +1 C23 +360 C335 >= +400
 R392: -106 C10 +1 C43 -1 C49 +560 C338 >= +144
 R393: -290 C4 -1 C43 +1 C49 +560 C339 >= +110
 R394: +1 C30 -1 C36 +100 C336 >= +30
 R395: -1 C30 +1 C36 +100 C337 >= +33
 R396: +106 C10 +1 C17 -1 C23 +360 C334 >= +250
 R397: +1 C340 +1 C341 +1 C342 +1 C343 +1 C344 +1 C345 <= +5
 R398: +290 C4 -1 C17 +1 C24 +360 C341 >= +400
 R399: -106 C11 +1 C43 -1 C50 +560 C344 >= +144
 R400: -290 C4 -1 C43 +1 C50 +560 C345 >= +110
 R401: +1 C30 -1 C37 +100 C342 >= +30
 R402: -1 C30 +1 C37 +100 C343 >= +33
 R403: +106 C11 +1 C17 -1 C24 +360 C340 >= +250
 R404: +1 C346 +1 C347 +1 C348 +1 C349 +1 C350 +1 C351 <= +5
 R405: +290 C4 -1 C17 +1 C25 +360 C347 >= +400
 R406: -106 C12 +1 C43 -1 C51 +560 C350 >= +144
 R407: -290 C4 -1 C43 +1 C51 +560 C351 >= +110
 R408: +1 C30 -1 C38 +100 C348 >= +30
 R409: -1 C30 +1 C38 +100 C349 >= +33
 R410: +106 C12 +1 C17 -1 C25 +360 C346 >= +250
 R411: +1 C352 +1 C353 +1 C354 +1 C355 +1 C356 +1 C357 <= +5
 R412: +290 C5 -1 C18 +1 C19 +360 C353 >= +400
 R413: -290 C6 +1 C44 -1 C45 +560 C356 >= +110
 R414: -290 C5 -1 C44 +1 C45 +560 C357 >= +110
 R415: +1 C31 -1 C32 +100 C354 >= +33
 R416: -1 C31 +1 C32 +100 C355 >= +33
 R417: +1 C5 -1 C6 <= +0
 R418: +290 C6 +1 C18 -1 C19 +360 C352 >= +400
 R419: +1 C358 +1 C359 +1 C360 +1 C361 +1 C362 +1 C363 <= +5
 R420: +290 C5 -1 C18 +1 C20 +360 C359 >= +400
 R421: -290 C7 +1 C44 -1 C46 +560 C362 >= +110
 R422: -290 C5 -1 C44 +1 C46 +560 C363 >= +110
 R423: +1 C31 -1 C33 +100 C360 >= +33
 R424: -1 C31 +1 C33 +100 C361 >= +33
 R425: +1 C5 -1 C7 <= +0
 R426: +290 C7 +1 C18 -1 C20 +360 C358 >= +400
 R427: +1 C364 +1 C365 +1 C366 +1 C367 +1 C368 +1 C369 <= +5
 R428: +290 C5 -1 C18 +1 C21 +360 C365 >= +400
 R429: -290 C8 +1 C44 -1 C47 +560 C368 >= +110
 R430: -290 C5 -1 C44 +1 C47 +560 C369 >= +110
 R431: +1 C31 -1 C34 +100 C366 >= +33
 R432: -1 C31 +1 C34 +100 C367 >= +33
 R433: +1 C5 -1 C8 <= +0
 R434: +290 C8 +1 C18 -1 C21 +360 C364 >= +400
 R435: +1 C370 +1 C371 +1 C372 +1 C373 +1 C374 +1 C375 <= +5
 R436: +290 C5 -1 C18 +1 C22 +360 C371 >= +400
 R437: -290 C9 +1 C44 -1 C48 +560 C374 >= +110
 R438: -290 C5 -1 C44 +1 C48 +560 C375 >= +110
 R439: +1 C31 -1 C35 +100 C372 >= +33
 R440: -1 C31 +1 C35 +100 C373 >= +33
 R441: +1 C5 -1 C9 <= +0
 R442: +290 C9 +1 C18 -1 C22 +360 C370 >= +400
 R443: +1 C376 +1 C377 +1 C378 +1 C379 +1 C380 +1 C381 <= +5
 R444: +290 C5 -1 C18 +1 C23 +360 C377 >= +400
 R445: -106 C10 +1 C44 -1 C49 +560 C380 >= +144
 R446: -290 C5 -1 C44 +1 C49 +560 C381 >= +110
 R447: +1 C31 -1 C36 +100 C378 >= +30
 R448: -1 C31 +1 C36 +100 C379 >= +33
 R449: +106 C10 +1 C18 -1 C23 +360 C376 >= +250
 R450: +1 C382 +1 C383 +1 C384 +1 C385 +1 C386 +1 C387 <= +5
 R451: +290 C5 -1 C18 +1 C24 +360 C383 >= +400
 R452: -106 C11 +1 C44 -1 C50 +560 C386 >= +144
 R453: -290 C5 -1 C44 +1 C50 +560 C387 >= +110
 R454: +1 C31 -1 C37 +100 C384 >= +30
 R455: -1 C31 +1 C37 +100 C385 >= +33
 R456: +106 C11 +1 C18 -1 C24 +360 C382 >= +250
 R457: +1 C388 +1 C389 +1 C390 +1 C391 +1 C392 +1 C393 <= +5
 R458: +290 C5 -1 C18 +1 C25 +360 C389 >= +400
 R459: -106 C12 +1 C44 -1 C51 +560 C392 >= +144
 R460: -290 C5 -1 C44 +1 C51 +560 C393 >= +110
 R461: +1 C31 -1 C38 +100 C390 >= +30
 R462: -1 C31 +1 C38 +100 C391 >= +33
 R463: +106 C12 +1 C18 -1 C25 +360 C388 >= +250
 R464: +1 C394 +1 C395 +1 C396 +1 C397 +1 C398 +1 C399 <= +5
 R465: +290 C6 -1 C19 +1 C20 +360 C395 >= +400
 R466: -290 C7 +1 C45 -1 C46 +560 C398 >= +110
 R467: -290 C6 -1 C45 +1 C46 +560 C399 >= +110
 R468: +1 C32 -1 C33 +100 C396 >= +33
 R469: -1 C32 +1 C33 +100 C397 >= +33
 R470: +1 C6 -1 C7 <= +0
 R471: +290 C7 +1 C19 -1 C20 +360 C394 >= +400
 R472: +1 C400 +1 C401 +1 C402 +1 C403 +1 C404 +1 C405 <= +5
 R473: +290 C6 -1 C19 +1 C21 +360 C401 >= +400
 R474: -290 C8 +1 C45 -1 C47 +560 C404 >= +110
 R475: -290 C6 -1 C45 +1 C47 +560 C405 >= +110
 R476: +1 C32 -1 C34 +100 C402 >= +33
 R477: -1 C32 +1 C34 +100 C403 >= +33
 R478: +1 C6 -1 C8 <= +0
 R479: +290 C8 +1 C19 -1 C21 +360 C400 >= +400
 R480: +1 C406 +1 C407 +1 C408 +1 C409 +1 C410 +1 C411 <= +5
 R481: +290 C6 -1 C19 +1 C22 +360 C407 >= +400
 R482: -290 C9 +1 C45 -1 C48 +560 C410 >= +110
 R483: -290 C6 -1 C45 +1 C48 +560 C411 >= +110
 R484: +1 C32 -1 C35 +100 C408 >= +33
 R485: -1 C32 +1 C35 +100 C409 >= +33
 R486: +1 C6 -1 C9 <= +0
 R487: +290 C9 +1 C19 -1 C22 +360 C406 >= +400
 R488: +1 C412 +1 C413 +1 C414 +1 C415 +1 C416 +1 C417 <= +5
 R489: +290 C6 -1 C19 +1 C23 +360 C413 >= +400
 R490: -106 C10 +1 C45 -1 C49 +560 C416 >= +144
 R491: -290 C6 -1 C45 +1 C49 +560 C417 >= +110
 R492: +1 C32 -1 C36 +100 C414 >= +30
 R493: -1 C32 +1 C36 +100 C415 >= +33
 R494: +106 C10 +1 C19 -1 C23 +360 C412 >= +250
 R495: +1 C418 +1 C419 +1 C420 +1 C421 +1 C422 +1 C423 <= +5
 R496: +290 C6 -1 C19 +1 C24 +360 C419 >= +400
 R497: -106 C11 +1 C45 -1 C50 +560 C422 >= +144
 R498: -290 C6 -1 C45 +1 C50 +560 C423 >= +110
 R499: +1 C32 -1 C37 +100 C420 >= +30
 R500: -1 C32 +1 C37 +100 C421 >= +33
 R501: +106 C11 +1 C19 -1 C24 +360 C418 >= +250
 R502: +1 C424 +1 C425 +1 C426 +1 C427 +1 C428 +1 C429 <= +5
 R503: +290 C6 -1 C19 +1 C25 +360 C425 >= +400
 R504: -106 C12 +1 C45 -1 C51 +560 C428 >= +144
 R505: -290 C6 -1 C45 +1 C51 +560 C429 >= +110
 R506: +1 C32 -1 C38 +100 C426 >= +30
 R507: -1 C32 +1 C38 +100 C427 >= +33
 R508: +106 C12 +1 C19 -1 C25 +360 C424 >= +250
 R509: +1 C430 +1 C431 +1 C432 +1 C433 +1 C434 +1 C435 <= +5
 R510: +290 C7 -1 C20 +1 C21 +360 C431 >= +400
 R511: -290 C8 +1 C46 -1 C47 +560 C434 >= +110
 R512: -290 C7 -1 C46 +1 C47 +560 C435 >= +110
 R513: +1 C33 -1 C34 +100 C432 >= +33
 R514: -1 C33 +1 C34 +100 C433 >= +33
 R515: +1 C7 -1 C8 <= +0
 R516: +290 C8 +1 C20 -1 C21 +360 C430 >= +400
 R517: +1 C436 +1 C437 +1 C438 +1 C439 +1 C440 +1 C441 <= +5
 R518: +290 C7 -1 C20 +1 C22 +360 C437 >= +400
 R519: -290 C9 +1 C46 -1 C48 +560 C440 >= +110
 R520: -290 C7 -1 C46 +1 C48 +560 C441 >= +110
 R521: +1 C33 -1 C35 +100 C438 >= +33
 R522: -1 C33 +1 C35 +100 C439 >= +33
 R523: +1 C7 -1 C9 <= +0
 R524: +290 C9 +1 C20 -1 C22 +360 C436 >= +400
 R525: +1 C442 +1 C443 +1 C444 +1 C445 +1 C446 +1 C447 <= +5
 R526: +290 C7 -1 C20 +1 C23 +360 C443 >= +400
 R527: -106 C10 +1 C46 -1 C49 +560 C446 >= +144
 R528: -290 C7 -1 C46 +1 C49 +560 C447 >= +110
 R529: +1 C33 -1 C36 +100 C444 >= +30
 R530: -1 C33 +1 C36 +100 C445 >= +33
 R531: +106 C10 +1 C20 -1 C23 +360 C442 >= +250
 R532: +1 C448 +1 C449 +1 C450 +1 C451 +1 C452 +1 C453 <= +5
 R533: +290 C7 -1 C20 +1 C24 +360 C449 >= +400
 R534: -106 C11 +1 C46 -1 C50 +560 C452 >= +144
 R535: -290 C7 -1 C46 +1 C50 +560 C453 >= +110
 R536: +1 C33 -1 C37 +100 C450 >= +30
 R537: -1 C33 +1 C37 +100 C451 >= +33
 R538: +106 C11 +1 C20 -1 C24 +360 C448 >= +250
 R539: +1 C454 +1 C455 +1 C456 +1 C457 +1 C458 +1 C459 <= +5
 R540: +290 C7 -1 C20 +1 C25 +360 C455 >= +400
 R541: -106 C12 +1 C46 -1 C51 +560 C458 >= +144
 R542: -290 C7 -1 C46 +1 C51 +560 C459 >= +110
 R543: +1 C33 -1 C38 +100 C456 >= +30
 R544: -1 C33 +1 C38 +100 C457 >= +33
 R545: +106 C12 +1 C20 -1 C25 +360 C454 >= +250
 R546: +1 C460 +1 C461 +1 C462 +1 C463 +1 C464 +1 C465 <= +5
 R547: +290 C8 -1 C21 +1 C22 +360 C461 >= +400
 R548: -290 C9 +1 C47 -1 C48 +560 C464 >= +110
 R549: -290 C8 -1 C47 +1 C48 +560 C465 >= +110
 R550: +1 C34 -1 C35 +100 C462 >= +33
 R551: -1 C34 +1 C35 +100 C463 >= +33
 R552: +1 C8 -1 C9 <= +0
 R553: +290 C9 +1 C21 -1 C22 +360 C460 >= +400
 R554: +1 C466 +1 C467 +1 C468 +1 C469 +1 C470 +1 C471 <= +5
 R555: +290 C8 -1 C21 +1 C23 +360 C467 >= +400
 R556: -106 C10 +1 C47 -1 C49 +560 C470 >= +144
 R557: -290 C8 -1 C47 +1 C49 +560 C471 >= +110
 R558: +1 C34 -1 C36 +100 C468 >= +30
 R559: -1 C34 +1 C36 +100 C469 >= +33
 R560: +106 C10 +1 C21 -1 C23 +360 C466 >= +250
 R561: +1 C472 +1 C473 +1 C474 +1 C475 +1 C476 +1 C477 <= +5
 R562: +290 C8 -1 C21 +1 C24 +360 C473 >= +400
 R563: -106 C11 +1 C47 -1 C50 +560 C476 >= +144
 R564: -290 C8 -1 C47 +1 C50 +560 C477 >= +110
 R565: +1 C34 -1 C37 +100 C474 >= +30
 R566: -1 C34 +1 C37 +100 C475 >= +33
 R567: +106 C11 +1 C21 -1 C24 +360 C472 >= +250
 R568: +1 C478 +1 C479 +1 C480 +1 C481 +1 C482 +1 C483 <= +5
 R569: +290 C8 -1 C21 +1 C25 +360 C479 >= +400
 R570: -106 C12 +1 C47 -1 C51 +560 C482 >= +144
 R571: -290 C8 -1 C47 +1 C51 +560 C483 >= +110
 R572: +1 C34 -1 C38 +100 C480 >= +30
 R573: -1 C34 +1 C38 +100 C481 >= +33
 R574: +106 C12 +1 C21 -1 C25 +360 C478 >= +250
 R575: +1 C484 +1 C485 +1 C486 +1 C487 +1 C488 +1 C489 <= +5
 R576: +290 C9 -1 C22 +1 C23 +360 C485 >= +400
 R577: -106 C10 +1 C48 -1 C49 +560 C488 >= +144
 R578: -290 C9 -1 C48 +1 C49 +560 C489 >= +110
 R579: +1 C35 -1 C36 +100 C486 >= +30
 R580: -1 C35 +1 C36 +100 C487 >= +33
 R581: +106 C10 +1 C22 -1 C23 +360 C484 >= +250
 R582: +1 C490 +1 C491 +1 C492 +1 C493 +1 C494 +1 C495 <= +5
 R583: +290 C9 -1 C22 +1 C24 +360 C491 >= +400
 R584: -106 C11 +1 C48 -1 C50 +560 C494 >= +144
 R585: -290 C9 -1 C48 +1 C50 +560 C495 >= +110
 R586: +1 C35 -1 C37 +100 C492 >= +30
 R587: -1 C35 +1 C37 +100 C493 >= +33
 R588: +106 C11 +1 C22 -1 C24 +360 C490 >= +250
 R589: +1 C496 +1 C497 +1 C498 +1 C499 +1 C500 +1 C501 <= +5
 R590: +290 C9 -1 C22 +1 C25 +360 C497 >= +400
 R591: -106 C12 +1 C48 -1 C51 +560 C500 >= +144
 R592: -290 C9 -1 C48 +1 C51 +560 C501 >= +110
 R593: +1 C35 -1 C38 +100 C498 >= +30
 R594: -1 C35 +1 C38 +100 C499 >= +33
 R595: +106 C12 +1 C22 -1 C25 +360 C496 >= +250
 R596: +1 C502 +1 C503 +1 C504 +1 C505 +1 C506 +1 C507 <= +5
 R597: +106 C10 -1 C23 +1 C24 +360 C503 >= +250
 R598: -106 C11 +1 C49 -1 C50 +560 C506 >= +144
 R599: -106 C10 -1 C49 +1 C50 +560 C507 >= +144
 R600: +1 C36 -1 C37 +100 C504 >= +30
 R601: -1 C36 +1 C37 +100 C505 >= +30
 R602: +1 C10 -1 C11 <= +0
 R603: +106 C11 +1 C23 -1 C24 +360 C502 >= +250
 R604: +1 C508 +1 C509 +1 C510 +1 C511 +1 C512 +1 C513 <= +5
 R605: +106 C10 -1 C23 +1 C25 +360 C509 >= +250
 R606: -106 C12 +1 C49 -1 C51 +560 C512 >= +144
 R607: -106 C10 -1 C49 +1 C51 +560 C513 >= +144
 R608: +1 C36 -1 C38 +100 C510 >= +30
 R609: -1 C36 +1 C38 +100 C511 >= +30
 R610: +1 C10 -1 C12 <= +0
 R611: +106 C12 +1 C23 -1 C25 +360 C508 >= +250
 R612: +1 C514 +1 C515 +1 C516 +1 C517 +1 C518 +1 C519 <= +5
 R613: +106 C11 -1 C24 +1 C25 +360 C515 >= +250
 R614: -106 C12 +1 C50 -1 C51 +560 C518 >= +144
 R615: -106 C11 -1 C50 +1 C51 +560 C519 >= +144
 R616: +1 C37 -1 C38 +100 C516 >= +30
 R617: -1 C37 +1 C38 +100 C517 >= +30
 R618: +1 C11 -1 C12 <= +0
 R619: +106 C12 +1 C24 -1 C25 +360 C514 >= +250
Bounds
 0 <= C518 <= 1
 0 <= C0 <= 1
 0 <= C1 <= 1
 0 <= C2 <= 1
 0 <= C3 <= 1
 0 <= C4 <= 1
 0 <= C5 <= 1
 0 <= C6 <= 1
 0 <= C7 <= 1
 0 <= C8 <= 1
 0 <= C9 <= 1
 0 <= C10 <= 1
 0 <= C11 <= 1
 0 <= C12 <= 1
 0 <= C52 <= 1
 0 <= C53 <= 1
 0 <= C54 <= 1
 0 <= C55 <= 1
 0 <= C56 <= 1
 0 <= C57 <= 1
 0 <= C58 <= 1
 0 <= C59 <= 1
 0 <= C60 <= 1
 0 <= C61 <= 1
 0 <= C62 <= 1
 0 <= C63 <= 1
 0 <= C64 <= 1
 0 <= C65 <= 1
 0 <= C66 <= 1
 0 <= C67 <= 1
 0 <= C68 <= 1
 0 <= C69 <= 1
 0 <= C70 <= 1
 0 <= C71 <= 1
 0 <= C72 <= 1
 0 <= C73 <= 1
 0 <= C74 <= 1
 0 <= C75 <= 1
 0 <= C76 <= 1
 0 <= C77 <= 1
 0 <= C78 <= 1
 0 <= C79 <= 1
 0 <= C80 <= 1
 0 <= C81 <= 1
 0 <= C82 <= 1
 0 <= C83 <= 1
 0 <= C84 <= 1
 0 <= C85 <= 1
 0 <= C86 <= 1
 0 <= C87 <= 1
 0 <= C88 <= 1
 0 <= C89 <= 1
 0 <= C90 <= 1
 0 <= C91 <= 1
 0 <= C92 <= 1
 0 <= C93 <= 1
 0 <= C94 <= 1
 0 <= C95 <= 1
 0 <= C96 <= 1
 0 <= C97 <= 1
 0 <= C98 <= 1
 0 <= C99 <= 1
 0 <= C100 <= 1
 0 <= C101 <= 1
 0 <= C102 <= 1
 0 <= C103 <= 1
 0 <= C104 <= 1
 0 <= C105 <= 1
 0 <= C106 <= 1
 0 <= C107 <= 1
 0 <= C108 <= 1
 0 <= C109 <= 1
 0 <= C110 <= 1
 0 <= C111 <= 1
 0 <= C112 <= 1
 0 <= C113 <= 1
 0 <= C114 <= 1
 0 <= C115 <= 1
 0 <= C116 <= 1
 0 <= C117 <= 1
 0 <= C118 <= 1
 0 <= C119 <= 1
 0 <= C120 <= 1
 0 <= C121 <= 1
 0 <= C122 <= 1
 0 <= C123 <= 1
 0 <= C124 <= 1
 0 <= C125 <= 1
 0 <= C126 <= 1
 0 <= C127 <= 1
 0 <= C128 <= 1
 0 <= C129 <= 1
 0 <= C130 <= 1
 0 <= C131 <= 1
 0 <= C132 <= 1
 0 <= C133 <= 1
 0 <= C134 <= 1
 0 <= C135 <= 1
 0 <= C136 <= 1
 0 <= C137 <= 1
 0 <= C138 <= 1
 0 <= C139 <= 1
 0 <= C140 <= 1
 0 <= C141 <= 1
 0 <= C142 <= 1
 0 <= C143 <= 1
 0 <= C144 <= 1
 0 <= C145 <= 1
 0 <= C146 <= 1
 0 <= C147 <= 1
 0 <= C148 <= 1
 0 <= C149 <= 1
 0 <= C150 <= 1
 0 <= C151 <= 1
 0 <= C152 <= 1
 0 <= C153 <= 1
 0 <= C154 <= 1
 0 <= C155 <= 1
 0 <= C156 <= 1
 0 <= C157 <= 1
 0 <= C158 <= 1
 0 <= C159 <= 1
 0 <= C160 <= 1
 0 <= C161 <= 1
 0 <= C162 <= 1
 0 <= C163 <= 1
 0 <= C164 <= 1
 0 <= C165 <= 1
 0 <= C166 <= 1
 0 <= C167 <= 1
 0 <= C168 <= 1
 0 <= C169 <= 1
 0 <= C170 <= 1
 0 <= C171 <= 1
 0 <= C172 <= 1
 0 <= C173 <= 1
 0 <= C174 <= 1
 0 <= C175 <= 1
 0 <= C176 <= 1
 0 <= C177 <= 1
 0 <= C178 <= 1
 0 <= C179 <= 1
 0 <= C180 <= 1
 0 <= C181 <= 1
 0 <= C182 <= 1
 0 <= C183 <= 1
 0 <= C184 <= 1
 0 <= C185 <= 1
 0 <= C186 <= 1
 0 <= C187 <= 1
 0 <= C188 <= 1
 0 <= C189 <= 1
 0 <= C190 <= 1
 0 <= C191 <= 1
 0 <= C192 <= 1
 0 <= C193 <= 1
 0 <= C194 <= 1
 0 <= C195 <= 1
 0 <= C196 <= 1
 0 <= C197 <= 1
 0 <= C198 <= 1
 0 <= C199 <= 1
 0 <= C200 <= 1
 0 <= C201 <= 1
 0 <= C202 <= 1
 0 <= C203 <= 1
 0 <= C204 <= 1
 0 <= C205 <= 1
 0 <= C206 <= 1
 0 <= C207 <= 1
 0 <= C208 <= 1
 0 <= C209 <= 1
 0 <= C210 <= 1
 0 <= C211 <= 1
 0 <= C212 <= 1
 0 <= C213 <= 1
 0 <= C214 <= 1
 0 <= C215 <= 1
 0 <= C216 <= 1
 0 <= C217 <= 1
 0 <= C218 <= 1
 0 <= C219 <= 1
 0 <= C220 <= 1
 0 <= C221 <= 1
 0 <= C222 <= 1
 0 <= C223 <= 1
 0 <= C224 <= 1
 0 <= C225 <= 1
 0 <= C226 <= 1
 0 <= C227 <= 1
 0 <= C228 <= 1
 0 <= C229 <= 1
 0 <= C230 <= 1
 0 <= C231 <= 1
 0 <= C232 <= 1
 0 <= C233 <= 1
 0 <= C234 <= 1
 0 <= C235 <= 1
 0 <= C236 <= 1
 0 <= C237 <= 1
 0 <= C238 <= 1
 0 <= C239 <= 1
 0 <= C240 <= 1
 0 <= C241 <= 1
 0 <= C242 <= 1
 0 <= C243 <= 1
 0 <= C244 <= 1
 0 <= C245 <= 1
 0 <= C246 <= 1
 0 <= C247 <= 1
 0 <= C248 <= 1
 0 <= C249 <= 1
 0 <= C250 <= 1
 0 <= C251 <= 1
 0 <= C252 <= 1
 0 <= C253 <= 1
 0 <= C254 <= 1
 0 <= C255 <= 1
 0 <= C256 <= 1
 0 <= C257 <= 1
 0 <= C258 <= 1
 0 <= C259 <= 1
 0 <= C260 <= 1
 0 <= C261 <= 1
 0 <= C262 <= 1
 0 <= C263 <= 1
 0 <= C264 <= 1
 0 <= C265 <= 1
 0 <= C266 <= 1
 0 <= C267 <= 1
 0 <= C268 <= 1
 0 <= C269 <= 1
 0 <= C270 <= 1
 0 <= C271 <= 1
 0 <= C272 <= 1
 0 <= C273 <= 1
 0 <= C274 <= 1
 0 <= C275 <= 1
 0 <= C276 <= 1
 0 <= C277 <= 1
 0 <= C278 <= 1
 0 <= C279 <= 1
 0 <= C280 <= 1
 0 <= C281 <= 1
 0 <= C282 <= 1
 0 <= C283 <= 1
 0 <= C284 <= 1
 0 <= C285 <= 1
 0 <= C286 <= 1
 0 <= C287 <= 1
 0 <= C288 <= 1
 0 <= C289 <= 1
 0 <= C290 <= 1
 0 <= C291 <= 1
 0 <= C292 <= 1
 0 <= C293 <= 1
 0 <= C294 <= 1
 0 <= C295 <= 1
 0 <= C296 <= 1
 0 <= C297 <= 1
 0 <= C298 <= 1
 0 <= C299 <= 1
 0 <= C300 <= 1
 0 <= C301 <= 1
 0 <= C302 <= 1
 0 <= C303 <= 1
 0 <= C304 <= 1
 0 <= C305 <= 1
 0 <= C306 <= 1
 0 <= C307 <= 1
 0 <= C308 <= 1
 0 <= C309 <= 1
 0 <= C310 <= 1
 0 <= C311 <= 1
 0 <= C312 <= 1
 0 <= C313 <= 1
 0 <= C314 <= 1
 0 <= C315 <= 1
 0 <= C316 <= 1
 0 <= C317 <= 1
 0 <= C318 <= 1
 0 <= C319 <= 1
 0 <= C320 <= 1
 0 <= C321 <= 1
 0 <= C322 <= 1
 0 <= C323 <= 1
 0 <= C324 <= 1
 0 <= C325 <= 1
 0 <= C326 <= 1
 0 <= C327 <= 1
 0 <= C328 <= 1
 0 <= C329 <= 1
 0 <= C330 <= 1
 0 <= C331 <= 1
 0 <= C332 <= 1
 0 <= C333 <= 1
 0 <= C334 <= 1
 0 <= C335 <= 1
 0 <= C336 <= 1
 0 <= C337 <= 1
 0 <= C338 <= 1
 0 <= C339 <= 1
 0 <= C340 <= 1
 0 <= C341 <= 1
 0 <= C342 <= 1
 0 <= C343 <= 1
 0 <= C344 <= 1
 0 <= C345 <= 1
 0 <= C346 <= 1
 0 <= C347 <= 1
 0 <= C348 <= 1
 0 <= C349 <= 1
 0 <= C350 <= 1
 0 <= C351 <= 1
 0 <= C352 <= 1
 0 <= C353 <= 1
 0 <= C354 <= 1
 0 <= C355 <= 1
 0 <= C356 <= 1
 0 <= C357 <= 1
 0 <= C358 <= 1
 0 <= C359 <= 1
 0 <= C360 <= 1
 0 <= C361 <= 1
 0 <= C362 <= 1
 0 <= C363 <= 1
 0 <= C364 <= 1
 0 <= C365 <= 1
 0 <= C366 <= 1
 0 <= C367 <= 1
 0 <= C368 <= 1
 0 <= C369 <= 1
 0 <= C370 <= 1
 0 <= C371 <= 1
 0 <= C372 <= 1
 0 <= C373 <= 1
 0 <= C374 <= 1
 0 <= C375 <= 1
 0 <= C376 <= 1
 0 <= C377 <= 1
 0 <= C378 <= 1
 0 <= C379 <= 1
 0 <= C380 <= 1
 0 <= C381 <= 1
 0 <= C382 <= 1
 0 <= C383 <= 1
 0 <= C384 <= 1
 0 <= C385 <= 1
 0 <= C386 <= 1
 0 <= C387 <= 1
 0 <= C388 <= 1
 0 <= C389 <= 1
 0 <= C390 <= 1
 0 <= C391 <= 1
 0 <= C392 <= 1
 0 <= C393 <= 1
 0 <= C394 <= 1
 0 <= C395 <= 1
 0 <= C396 <= 1
 0 <= C397 <= 1
 0 <= C398 <= 1
 0 <= C399 <= 1
 0 <= C400 <= 1
 0 <= C401 <= 1
 0 <= C402 <= 1
 0 <= C403 <= 1
 0 <= C404 <= 1
 0 <= C405 <= 1
 0 <= C406 <= 1
 0 <= C407 <= 1
 0 <= C408 <= 1
 0 <= C409 <= 1
 0 <= C410 <= 1
 0 <= C411 <= 1
 0 <= C412 <= 1
 0 <= C413 <= 1
 0 <= C414 <= 1
 0 <= C415 <= 1
 0 <= C416 <= 1
 0 <= C417 <= 1
 0 <= C418 <= 1
 0 <= C419 <= 1
 0 <= C420 <= 1
 0 <= C421 <= 1
 0 <= C422 <= 1
 0 <= C423 <= 1
 0 <= C424 <= 1
 0 <= C425 <= 1
 0 <= C426 <= 1
 0 <= C427 <= 1
 0 <= C428 <= 1
 0 <= C429 <= 1
 0 <= C430 <= 1
 0 <= C431 <= 1
 0 <= C432 <= 1
 0 <= C433 <= 1
 0 <= C434 <= 1
 0 <= C435 <= 1
 0 <= C436 <= 1
 0 <= C437 <= 1
 0 <= C438 <= 1
 0 <= C439 <= 1
 0 <= C440 <= 1
 0 <= C441 <= 1
 0 <= C442 <= 1
 0 <= C443 <= 1
 0 <= C444 <= 1
 0 <= C445 <= 1
 0 <= C446 <= 1
 0 <= C447 <= 1
 0 <= C448 <= 1
 0 <= C449 <= 1
 0 <= C450 <= 1
 0 <= C451 <= 1
 0 <= C452 <= 1
 0 <= C453 <= 1
 0 <= C454 <= 1
 0 <= C455 <= 1
 0 <= C456 <= 1
 0 <= C457 <= 1
 0 <= C458 <= 1
 0 <= C459 <= 1
 0 <= C460 <= 1
 0 <= C461 <= 1
 0 <= C462 <= 1
 0 <= C463 <= 1
 0 <= C464 <= 1
 0 <= C465 <= 1
 0 <= C466 <= 1
 0 <= C467 <= 1
 0 <= C468 <= 1
 0 <= C469 <= 1
 0 <= C470 <= 1
 0 <= C471 <= 1
 0 <= C472 <= 1
 0 <= C473 <= 1
 0 <= C474 <= 1
 0 <= C475 <= 1
 0 <= C476 <= 1
 0 <= C477 <= 1
 0 <= C478 <= 1
 0 <= C479 <= 1
 0 <= C480 <= 1
 0 <= C481 <= 1
 0 <= C482 <= 1
 0 <= C483 <= 1
 0 <= C484 <= 1
 0 <= C485 <= 1
 0 <= C486 <= 1
 0 <= C487 <= 1
 0 <= C488 <= 1
 0 <= C489 <= 1
 0 <= C490 <= 1
 0 <= C491 <= 1
 0 <= C492 <= 1
 0 <= C493 <= 1
 0 <= C494 <= 1
 0 <= C495 <= 1
 0 <= C496 <= 1
 0 <= C497 <= 1
 0 <= C498 <= 1
 0 <= C499 <= 1
 0 <= C500 <= 1
 0 <= C501 <= 1
 0 <= C502 <= 1
 0 <= C503 <= 1
 0 <= C504 <= 1
 0 <= C505 <= 1
 0 <= C506 <= 1
 0 <= C507 <= 1
 0 <= C508 <= 1
 0 <= C509 <= 1
 0 <= C510 <= 1
 0 <= C511 <= 1
 0 <= C512 <= 1
 0 <= C513 <= 1
 0 <= C514 <= 1
 0 <= C515 <= 1
 0 <= C516 <= 1
 0 <= C517 <= 1
 0 <= C519 <= 1
 0 <= C13 <= 250
 0 <= C14 <= 250
 0 <= C15 <= 250
 0 <= C16 <= 250
 0 <= C17 <= 250
 0 <= C18 <= 250
 0 <= C19 <= 250
 0 <= C20 <= 250
 0 <= C21 <= 250
 0 <= C22 <= 250
 0 <= C23 <= 216
 0 <= C24 <= 216
 0 <= C25 <= 216
 0 <= C26 <= 67
 0 <= C27 <= 67
 0 <= C28 <= 67
 0 <= C29 <= 67
 0 <= C30 <= 67
 0 <= C31 <= 67
 0 <= C32 <= 67
 0 <= C33 <= 67
 0 <= C34 <= 67
 0 <= C35 <= 67
 0 <= C36 <= 70
 0 <= C37 <= 70
 0 <= C38 <= 70
 0 <= C39 <= 450
 0 <= C40 <= 450
 0 <= C41 <= 450
 0 <= C42 <= 450
 0 <= C43 <= 450
 0 <= C44 <= 450
 0 <= C45 <= 450
 0 <= C46 <= 450
 0 <= C47 <= 450
 0 <= C48 <= 450
 0 <= C49 <= 416
 0 <= C50 <= 416
 0 <= C51 <= 416
Binaries
 C518 C0 C1 C2 C3 C4 C5 C6 C7 C8 C9 C10 C11 C12 C52 C53 C54 C55 C56 C57 C58 C59 C60 C61 C62 C63 C64 C65
 C66 C67 C68 C69 C70 C71 C72 C73 C74 C75 C76 C77 C78 C79 C80 C81 C82 C83 C84 C85 C86 C87 C88 C89 C90 C91
 C92 C93 C94 C95 C96 C97 C98 C99 C100 C101 C102 C103 C104 C105 C106 C107 C108 C109 C110 C111 C112 C113
 C114 C115 C116 C117 C118 C119 C120 C121 C122 C123 C124 C125 C126 C127 C128 C129 C130 C131 C132 C133 C134
 C135 C136 C137 C138 C139 C140 C141 C142 C143 C144 C145 C146 C147 C148 C149 C150 C151 C152 C153 C154 C155
 C156 C157 C158 C159 C160 C161 C162 C163 C164 C165 C166 C167 C168 C169 C170 C171 C172 C173 C174 C175 C176
 C177 C178 C179 C180 C181 C182 C183 C184 C185 C186 C187 C188 C189 C190 C191 C192 C193 C194 C195 C196 C197
 C198 C199 C200 C201 C202 C203 C204 C205 C206 C207 C208 C209 C210 C211 C212 C213 C214 C215 C216 C217 C218
 C219 C220 C221 C222 C223 C224 C225 C226 C227 C228 C229 C230 C231 C232 C233 C234 C235 C236 C237 C238 C239
 C240 C241 C242 C243 C244 C245 C246 C247 C248 C249 C250 C251 C252 C253 C254 C255 C256 C257 C258 C259 C260
 C261 C262 C263 C264 C265 C266 C267 C268 C269 C270 C271 C272 C273 C274 C275 C276 C277 C278 C279 C280 C281
 C282 C283 C284 C285 C286 C287 C288 C289 C290 C291 C292 C293 C294 C295 C296 C297 C298 C299 C300 C301 C302
 C303 C304 C305 C306 C307 C308 C309 C310 C311 C312 C313 C314 C315 C316 C317 C318 C319 C320 C321 C322 C323
 C324 C325 C326 C327 C328 C329 C330 C331 C332 C333 C334 C335 C336 C337 C338 C339 C340 C341 C342 C343 C344
 C345 C346 C347 C348 C349 C350 C351 C352 C353 C354 C355 C356 C357 C358 C359 C360 C361 C362 C363 C364 C365
 C366 C367 C368 C369 C370 C371 C372 C373 C374 C375 C376 C377 C378 C379 C380 C381 C382 C383 C384 C385 C386
 C387 C388 C389 C390 C391 C392 C393 C394 C395 C396 C397 C398 C399 C400 C401 C402 C403 C404 C405 C406 C407
 C408 C409 C410 C411 C412 C413 C414 C415 C416 C417 C418 C419 C420 C421 C422 C423 C424 C425 C426 C427 C428
 C429 C430 C431 C432 C433 C434 C435 C436 C437 C438 C439 C440 C441 C442 C443 C444 C445 C446 C447 C448 C449
 C450 C451 C452 C453 C454 C455 C456 C457 C458 C459 C460 C461 C462 C463 C464 C465 C466 C467 C468 C469 C470
 C471 C472 C473 C474 C475 C476 C477 C478 C479 C480 C481 C482 C483 C484 C485 C486 C487 C488 C489 C490 C491
 C492 C493 C494 C495 C496 C497 C498 C499 C500 C501 C502 C503 C504 C505 C506 C507 C508 C509 C510 C511 C512
 C513 C514 C515 C516 C517 C519
End
